c 9th DIMACS Implementation Challenge: Shortest Paths
c http://www.dis.uniroma1.it/~challenge9
c TIGER/Line graph AK.tmp
c
p sp 3 6
c graph contains 3 nodes and 6 arcs
c
a 1 2 1615
a 2 1 1615
a 3 2 77
a 2 3 77
a 1 3 818
a 3 1 818
